experiment/data/hgs-res/Vrp-Set-F-n45/Vrp-Set-F-n45-hgs/0.hgs1.vrp
NAME : 0
COMMENT : CVRP Instance
TYPE : CVRP
DIMENSION : 45
EDGE_WEIGHT_TYPE : EUC_2D
CAPACITY : 2010
NODE_COORD_SECTION
1	0.0	0.0
2	3.0	5.0
3	2.5	9.0
4	48.0	16.0
5	48.0	17.0
6	69.0	16.0
7	70.0	16.0
8	64.0	13.0
9	3.0	-22.0
10	2.5	1.0
11	-13.0	11.5
12	-20.0	45.0
13	-9.0	52.0
14	-8.5	53.0
15	-8.0	52.0
16	2.0	2.0
17	-2.0	9.0
18	-10.0	20.0
19	-20.0	19.0
20	-15.0	-21.0
21	-5.0	-9.0
22	-4.5	-9.0
23	-52.0	-36.0
24	-53.0	-36.0
25	0.0	0.01
26	-30.0	-18.0
27	-51.0	-35.0
28	81.0	9.0
29	84.0	-99.0
30	82.0	-6.0
31	40.0	-12.0
32	50.0	-7.0
33	51.0	-8.0
34	63.0	-17.0
35	45.0	-1.0
36	54.0	8.5
37	29.0	4.0
38	21.0	3.0
39	22.0	2.0
40	39.0	-3.0
41	39.5	-3.0
42	40.0	-11.0
43	28.0	-2.0
44	24.0	-18.0
45	24.0	-19.0
DEMAND_SECTION
1	0
2	33
3	15
4	10
5	40
6	15
7	5
8	77
9	435
10	165
11	120
12	65
13	23
14	18
15	550
16	78
17	627
18	9
19	96
20	116
21	116
22	83
23	41
24	645
25	694
26	573
27	1
28	181
29	106
30	52
31	117
32	52
33	1300
34	57
35	28
36	84
37	1
38	54
39	19
40	88
41	41
42	238
43	66
44	44
45	42
DEPOT_SECTION
1
-1
EOF
