experiment/data/hgs-res/Vrp-Set-F-n45/Vrp-Set-F-n45-hgs/0.hgs1.tour
Route #1: 8 19 22 23 26 25 20 21
Route #2: 37 38 36 39 40 34 31 32 30 41 42
Route #3: 10 17 18 11 12 13 14 4 3 35 7 5 6 27 29 33 28 44 43
Route #4: 24 16 2 1 15 9
Cost 723.541
